# GayBerne interaction tests
#   Spheroid-Sphere


units lj
atom_style ellipsoid
region box block 0 10 0 10 0 10    # box is overwritten by reading dump file
create_box 2 box                   # Two atom types: 1) chrm 2) dye labels

read_dump config-relaxed-5.dump 0 x y z add yes box yes

include walkerinput.in

set type 1 mass 3.0
set type 2 mass 1.0

set type 1 shape 1.0 1.0 0.5 #1 is x next is y third is z (LAMMPS docs doesn't describe same type of particle as ours) 
set type 2 shape 1.0 1.0 1.0 # shape basically = diameter in one plane

group ellip type 1
group spher type 2

group big type 1 2

set group big quat/random 87287 # randomly initialize orientation of all objects

comm_style tiled # used for specifying how processors communicate w/ each other during sim
comm_modify cutoff 3.0 mode single vel yes

balance 1.1 rcb

velocity spher create 2.50 87287 # randomly initialize dye velocity from boltzmann temp distribution of 2.50
velocity ellip zero linear # set initial velocity of frozen particles (here SREV nucleosomes) to zero

fix freeze ellip setforce 0.0 0.0 0.0 # zero forces acting on SREV nucleosomes

pair_style gayberne 1.0 1.0 1.0 3.0 #used for specifying SREV-dye label & dye label-dye label interaction potentials
pair_coeff 1 1  1.0 1.0   1.7 1.7 3.4   0.0 0.0 0.0
pair_coeff 1 2  1.0 1.0   1.7 1.7 3.4   0.0 0.0 0.0
pair_coeff 2 2  1.0 1.0   1.7 1.7 1.7   0.0 0.0 0.0

# define how particles' list of neighbors are constructed -> important for simulation machinations

neighbor 0.7 bin
neigh_modify every 20 delay 0 check no

# below lines specify temp of whole system

fix 1 all nvt temp   1.0
fix 2 all balance 500 1.1 rcb

delete_atoms overlap 0.98 ellip ellip # some SREV configs have overlaps despite MD repulsion sim; need to remove overlaps before label sim proceeds

# below computes are for computing temp of different sets of objects for review of sim dynamics

compute         rot all temp/asphere
compute         0 all property/atom quatw quati quatj quatk shapex shapey shapez

compute		mTempRegularTemp spher temp
compute		mTAT spher temp/asphere

timestep 0.0005

thermo_style custom step temp c_mTempRegularTemp c_mTAT epair emol etotal press

thermo 100

# if below dump lines are uncommented, an output trajectory for visual in Ovito can be made (using above "compute 0" line)

#dump           1 all custom 1000 dump.ellipsoid id type x y z c_0[*]
#dump_modify    1 colname c_0[1] quatw colname c_0[2] quati colname c_0[3] quatj colname c_0[4] quatk &
#                 colname c_0[5] shapex colname c_0[6] shapey colname c_0[7] shapez
#dump_modify    1 sort id

dump mydump spher xyz 1000 walkers.xyz
dump_modify mydump sort id

#uncommenting below line generates restart files (simulation savepoints that you can continue in a new LAMMPS run)

#restart 10000 restart-10nm.*.%

run 20000
